# 22200
param n := 25;
param s := 1;
set E :=  (0,3) (1,9) (1,14) (1,20) (1,24) (2,5) (2,7) (3,12) (3,19) (4,13) (4,22) (5,18) (6,18) (7,19) (8,15) (8,17) (9,10) (9,15) (11,13) (11,19) (12,13) (12,16) (13,15) (14,18) (14,23) (16,20) (18,20) (18,21) (20,24) (22,24);
